11088 10738 499 497 496 495 494 493 492 490 488 487 486 485 484 483 482 480 478 477 476 475 474 473 470 469 467 466 461 460 459 457 456 455 453 452 451 450 448 447 446 445 444 443 442 441 440 439 435 434 433 432 431 430 429 428 427 426 425 424 421 420 419 417 416 415 414 413 412 411 410 409 408 406 405 403 402 401 400 399 398 397 396 395 394 393 392 391 389 388 387 385 382 379 378 377 376 373 371 369 368 367 366 365 363 362 361 360 359 358 357 356 352 350 349 348 347 346 345 344 343 342 340 339 338 337 336 335 334 332 331 330 329 328 327 325 324 323 322 320 319 318 317 315 314 312 310 309 308 306 305 304 303 302 301 299 298 297 296 294 293 292 291 290 289 288 287 286 285 284 283 282 281 280 279 278 277 276 271 270 267 266 265 264 263 262 259 258 257 256 255 254 252 249 248 247 245 244 243 242 241 239 238 237 236 234 233 231 230 229 228 226 225 224 221 220 219 218 217 216 215 214 212 210 209 208 207 206 204 203 201 199 198 197 196 194 193 192 191 188 187 186 185 182 180 179 178 176 175 173 172 171 170 169 168 167 166 165 163 161 160 159 158 157 155 154 153 152 151 150 148 147 146 145 143 142 141 140 139 137 136 135 132 131 129 128 127 126 123 122 121 118 117 115 111 109 108 106 105 103 102 100 99 98 97 96 95 94 93 92 91 90 89 88 87 86 85 84 83 82 81 80 79 78 77 76 75 74 72 71 70 68 67 66 64 63 62 61 60 59 58 55 54 52 51 50 49 48 47 46 45 44 42 41 40 39 38 37 36 35 34 33 32 31 30 26 25 20 19 18 16 14 13 12 10 9 7 6 5 4 3 2 